50

99 45 298
96 39 345
96 30 297
96 7 354
95 10 303
95 36 291
94 20 326
90 24 339
90 22 318
88 30 317
87 37 263
84 40 271
82 8 343
78 39 331
77 31 249
77 2 276
77 8 326
75 13 282
75 32 334
70 19 310
70 4 244
69 19 305
68 31 291
56 6 335
54 13 351
53 12 258
53 24 272
50 18 269
50 16 237
49 16 353
48 12 333
47 20 312
45 21 290
38 10 359
36 10 150
35 10 348
34 10 113
28 11 151
25 8 339
21 9 192
19 3 97
18 5 355
16 5 168
13 6 343
13 1 305
7 3 105
7 1 215
6 2 81
3 2 159
3 1 302
